p edge 200 1534
e 1 2 4
e 1 37 39
e 1 38 40
e 1 39 41
e 1 74 76
e 1 75 77
e 1 76 78
e 1 111 113
e 1 112 114
e 1 113 115
e 1 148 150
e 1 149 151
e 1 150 152
e 1 185 187
e 1 186 188
e 1 187 189
e 2 3 6
e 2 38 41
e 2 39 42
e 2 40 43
e 2 75 78
e 2 76 79
e 2 77 80
e 2 112 115
e 2 113 116
e 2 114 117
e 2 149 152
e 2 150 153
e 2 151 154
e 2 186 189
e 2 187 190
e 2 188 191
e 3 4 8
e 3 39 43
e 3 40 44
e 3 41 45
e 3 76 80
e 3 77 81
e 3 78 82
e 3 113 117
e 3 114 118
e 3 115 119
e 3 150 154
e 3 151 155
e 3 152 156
e 3 187 191
e 3 188 192
e 3 189 193
e 4 5 10
e 4 40 45
e 4 41 46
e 4 42 47
e 4 77 82
e 4 78 83
e 4 79 84
e 4 114 119
e 4 115 120
e 4 116 121
e 4 151 156
e 4 152 157
e 4 153 158
e 4 188 193
e 4 189 194
e 4 190 195
e 5 6 12
e 5 41 47
e 5 42 48
e 5 43 49
e 5 78 84
e 5 79 85
e 5 80 86
e 5 115 121
e 5 116 122
e 5 117 123
e 5 152 158
e 5 153 159
e 5 154 160
e 5 189 195
e 5 190 196
e 5 191 197
e 6 7 14
e 6 42 49
e 6 43 50
e 6 44 51
e 6 79 86
e 6 80 87
e 6 81 88
e 6 116 123
e 6 117 124
e 6 118 125
e 6 153 160
e 6 154 161
e 6 155 162
e 6 190 197
e 6 191 198
e 6 192 199
e 7 8 16
e 7 43 51
e 7 44 52
e 7 45 53
e 7 80 88
e 7 81 89
e 7 82 90
e 7 117 125
e 7 118 126
e 7 119 127
e 7 154 162
e 7 155 163
e 7 156 164
e 7 191 199
e 7 192 200
e 7 193 1
e 8 9 18
e 8 44 53
e 8 45 54
e 8 46 55
e 8 81 90
e 8 82 91
e 8 83 92
e 8 118 127
e 8 119 128
e 8 120 129
e 8 155 164
e 8 156 165
e 8 157 166
e 8 192 1
e 8 193 2
e 8 194 3
e 9 10 20
e 9 45 55
e 9 46 56
e 9 47 57
e 9 82 92
e 9 83 93
e 9 84 94
e 9 119 129
e 9 120 130
e 9 121 131
e 9 156 166
e 9 157 167
e 9 158 168
e 9 193 3
e 9 194 4
e 9 195 5
e 10 11 22
e 10 46 57
e 10 47 58
e 10 48 59
e 10 83 94
e 10 84 95
e 10 85 96
e 10 120 131
e 10 121 132
e 10 122 133
e 10 157 168
e 10 158 169
e 10 159 170
e 10 194 5
e 10 195 6
e 10 196 7
e 11 12 24
e 11 47 59
e 11 48 60
e 11 49 61
e 11 84 96
e 11 85 97
e 11 86 98
e 11 121 133
e 11 122 134
e 11 123 135
e 11 158 170
e 11 159 171
e 11 160 172
e 11 195 7
e 11 196 8
e 11 197 9
e 12 13 26
e 12 48 61
e 12 49 62
e 12 50 63
e 12 85 98
e 12 86 99
e 12 87 100
e 12 122 135
e 12 123 136
e 12 124 137
e 12 159 172
e 12 160 173
e 12 161 174
e 12 196 9
e 12 197 10
e 12 198 11
e 13 14 28
e 13 49 63
e 13 50 64
e 13 51 65
e 13 86 100
e 13 87 101
e 13 88 102
e 13 123 137
e 13 124 138
e 13 125 139
e 13 160 174
e 13 161 175
e 13 162 176
e 13 197 11
e 13 198 12
e 13 199 13
e 14 15 30
e 14 50 65
e 14 51 66
e 14 52 67
e 14 87 102
e 14 88 103
e 14 89 104
e 14 124 139
e 14 125 140
e 14 126 141
e 14 161 176
e 14 162 177
e 14 163 178
e 14 198 13
e 14 199 14
e 14 200 15
e 15 16 32
e 15 51 67
e 15 52 68
e 15 53 69
e 15 88 104
e 15 89 105
e 15 90 106
e 15 125 141
e 15 126 142
e 15 127 143
e 15 162 178
e 15 163 179
e 15 164 180
e 15 199 15
e 15 200 16
e 16 17 34
e 16 52 69
e 16 53 70
e 16 54 71
e 16 89 106
e 16 90 107
e 16 91 108
e 16 126 143
e 16 127 144
e 16 128 145
e 16 163 180
e 16 164 181
e 16 165 182
e 16 200 17
e 17 18 36
e 17 53 71
e 17 54 72
e 17 55 73
e 17 90 108
e 17 91 109
e 17 92 110
e 17 127 145
e 17 128 146
e 17 129 147
e 17 164 182
e 17 165 183
e 17 166 184
e 18 19 38
e 18 54 73
e 18 55 74
e 18 56 75
e 18 91 110
e 18 92 111
e 18 93 112
e 18 128 147
e 18 129 148
e 18 130 149
e 18 165 184
e 18 166 185
e 18 167 186
e 19 20 40
e 19 55 75
e 19 56 76
e 19 57 77
e 19 92 112
e 19 93 113
e 19 94 114
e 19 129 149
e 19 130 150
e 19 131 151
e 19 166 186
e 19 167 187
e 19 168 188
e 20 21 42
e 20 56 77
e 20 57 78
e 20 58 79
e 20 93 114
e 20 94 115
e 20 95 116
e 20 130 151
e 20 131 152
e 20 132 153
e 20 167 188
e 20 168 189
e 20 169 190
e 21 22 44
e 21 57 79
e 21 58 80
e 21 59 81
e 21 94 116
e 21 95 117
e 21 96 118
e 21 131 153
e 21 132 154
e 21 133 155
e 21 168 190
e 21 169 191
e 21 170 192
e 22 23 46
e 22 58 81
e 22 59 82
e 22 60 83
e 22 95 118
e 22 96 119
e 22 97 120
e 22 132 155
e 22 133 156
e 22 134 157
e 22 169 192
e 22 170 193
e 22 171 194
e 23 24 48
e 23 59 83
e 23 60 84
e 23 61 85
e 23 96 120
e 23 97 121
e 23 98 122
e 23 133 157
e 23 134 158
e 23 135 159
e 23 170 194
e 23 171 195
e 23 172 196
e 24 25 50
e 24 60 85
e 24 61 86
e 24 62 87
e 24 97 122
e 24 98 123
e 24 99 124
e 24 134 159
e 24 135 160
e 24 136 161
e 24 171 196
e 24 172 197
e 24 173 198
e 25 26 52
e 25 61 87
e 25 62 88
e 25 63 89
e 25 98 124
e 25 99 125
e 25 100 126
e 25 135 161
e 25 136 162
e 25 137 163
e 25 172 198
e 25 173 199
e 25 174 200
e 26 27 54
e 26 62 89
e 26 63 90
e 26 64 91
e 26 99 126
e 26 100 127
e 26 101 128
e 26 136 163
e 26 137 164
e 26 138 165
e 26 173 200
e 26 174 1
e 26 175 2
e 27 28 56
e 27 63 91
e 27 64 92
e 27 65 93
e 27 100 128
e 27 101 129
e 27 102 130
e 27 137 165
e 27 138 166
e 27 139 167
e 27 174 2
e 27 175 3
e 27 176 4
e 28 29 58
e 28 64 93
e 28 65 94
e 28 66 95
e 28 101 130
e 28 102 131
e 28 103 132
e 28 138 167
e 28 139 168
e 28 140 169
e 28 175 4
e 28 176 5
e 28 177 6
e 29 30 60
e 29 65 95
e 29 66 96
e 29 67 97
e 29 102 132
e 29 103 133
e 29 104 134
e 29 139 169
e 29 140 170
e 29 141 171
e 29 176 6
e 29 177 7
e 29 178 8
e 30 31 62
e 30 66 97
e 30 67 98
e 30 68 99
e 30 103 134
e 30 104 135
e 30 105 136
e 30 140 171
e 30 141 172
e 30 142 173
e 30 177 8
e 30 178 9
e 30 179 10
e 31 32 64
e 31 67 99
e 31 68 100
e 31 69 101
e 31 104 136
e 31 105 137
e 31 106 138
e 31 141 173
e 31 142 174
e 31 143 175
e 31 178 10
e 31 179 11
e 31 180 12
e 32 33 66
e 32 68 101
e 32 69 102
e 32 70 103
e 32 105 138
e 32 106 139
e 32 107 140
e 32 142 175
e 32 143 176
e 32 144 177
e 32 179 12
e 32 180 13
e 32 181 14
e 33 34 68
e 33 69 103
e 33 70 104
e 33 71 105
e 33 106 140
e 33 107 141
e 33 108 142
e 33 143 177
e 33 144 178
e 33 145 179
e 33 180 14
e 33 181 15
e 33 182 16
e 34 35 70
e 34 70 105
e 34 71 106
e 34 72 107
e 34 107 142
e 34 108 143
e 34 109 144
e 34 144 179
e 34 145 180
e 34 146 181
e 34 181 16
e 34 182 17
e 34 183 18
e 35 36 72
e 35 71 107
e 35 72 108
e 35 73 109
e 35 108 144
e 35 109 145
e 35 110 146
e 35 145 181
e 35 146 182
e 35 147 183
e 35 182 18
e 35 183 19
e 35 184 20
e 36 37 74
e 36 72 109
e 36 73 110
e 36 74 111
e 36 109 146
e 36 110 147
e 36 111 148
e 36 146 183
e 36 147 184
e 36 148 185
e 36 183 20
e 36 184 21
e 36 185 22
e 37 38 76
e 37 73 111
e 37 74 112
e 37 75 113
e 37 110 148
e 37 111 149
e 37 112 150
e 37 147 185
e 37 148 186
e 37 149 187
e 37 184 22
e 37 185 23
e 37 186 24
e 38 39 78
e 38 74 113
e 38 75 114
e 38 76 115
e 38 111 150
e 38 112 151
e 38 113 152
e 38 148 187
e 38 149 188
e 38 150 189
e 38 185 24
e 38 186 25
e 38 187 26
e 39 40 80
e 39 75 115
e 39 76 116
e 39 77 117
e 39 112 152
e 39 113 153
e 39 114 154
e 39 149 189
e 39 150 190
e 39 151 191
e 39 186 26
e 39 187 27
e 39 188 28
e 40 41 82
e 40 76 117
e 40 77 118
e 40 78 119
e 40 113 154
e 40 114 155
e 40 115 156
e 40 150 191
e 40 151 192
e 40 152 193
e 40 187 28
e 40 188 29
e 40 189 30
e 41 42 84
e 41 77 119
e 41 78 120
e 41 79 121
e 41 114 156
e 41 115 157
e 41 116 158
e 41 151 193
e 41 152 194
e 41 153 195
e 41 188 30
e 41 189 31
e 41 190 32
e 42 43 86
e 42 78 121
e 42 79 122
e 42 80 123
e 42 115 158
e 42 116 159
e 42 117 160
e 42 152 195
e 42 153 196
e 42 154 197
e 42 189 32
e 42 190 33
e 42 191 34
e 43 44 88
e 43 79 123
e 43 80 124
e 43 81 125
e 43 116 160
e 43 117 161
e 43 118 162
e 43 153 197
e 43 154 198
e 43 155 199
e 43 190 34
e 43 191 35
e 43 192 36
e 44 45 90
e 44 80 125
e 44 81 126
e 44 82 127
e 44 117 162
e 44 118 163
e 44 119 164
e 44 154 199
e 44 155 200
e 44 156 1
e 44 191 36
e 44 192 37
e 44 193 38
e 45 46 92
e 45 81 127
e 45 82 128
e 45 83 129
e 45 118 164
e 45 119 165
e 45 120 166
e 45 155 1
e 45 156 2
e 45 157 3
e 45 192 38
e 45 193 39
e 45 194 40
e 46 47 94
e 46 82 129
e 46 83 130
e 46 84 131
e 46 119 166
e 46 120 167
e 46 121 168
e 46 156 3
e 46 157 4
e 46 158 5
e 46 193 40
e 46 194 41
e 46 195 42
e 47 48 96
e 47 83 131
e 47 84 132
e 47 85 133
e 47 120 168
e 47 121 169
e 47 122 170
e 47 157 5
e 47 158 6
e 47 159 7
e 47 194 42
e 47 195 43
e 47 196 44
e 48 49 98
e 48 84 133
e 48 85 134
e 48 86 135
e 48 121 170
e 48 122 171
e 48 123 172
e 48 158 7
e 48 159 8
e 48 160 9
e 48 195 44
e 48 196 45
e 48 197 46
e 49 50 100
e 49 85 135
e 49 86 136
e 49 87 137
e 49 122 172
e 49 123 173
e 49 124 174
e 49 159 9
e 49 160 10
e 49 161 11
e 49 196 46
e 49 197 47
e 49 198 48
e 50 51 102
e 50 86 137
e 50 87 138
e 50 88 139
e 50 123 174
e 50 124 175
e 50 125 176
e 50 160 11
e 50 161 12
e 50 162 13
e 50 197 48
e 50 198 49
e 50 199 50
e 51 52 104
e 51 87 139
e 51 88 140
e 51 89 141
e 51 124 176
e 51 125 177
e 51 126 178
e 51 161 13
e 51 162 14
e 51 163 15
e 51 198 50
e 51 199 51
e 51 200 52
e 52 53 106
e 52 88 141
e 52 89 142
e 52 90 143
e 52 125 178
e 52 126 179
e 52 127 180
e 52 162 15
e 52 163 16
e 52 164 17
e 52 199 52
e 52 200 53
e 53 54 108
e 53 89 143
e 53 90 144
e 53 91 145
e 53 126 180
e 53 127 181
e 53 128 182
e 53 163 17
e 53 164 18
e 53 165 19
e 53 200 54
e 54 55 110
e 54 90 145
e 54 91 146
e 54 92 147
e 54 127 182
e 54 128 183
e 54 129 184
e 54 164 19
e 54 165 20
e 54 166 21
e 55 56 112
e 55 91 147
e 55 92 148
e 55 93 149
e 55 128 184
e 55 129 185
e 55 130 186
e 55 165 21
e 55 166 22
e 55 167 23
e 56 57 114
e 56 92 149
e 56 93 150
e 56 94 151
e 56 129 186
e 56 130 187
e 56 131 188
e 56 166 23
e 56 167 24
e 56 168 25
e 57 58 116
e 57 93 151
e 57 94 152
e 57 95 153
e 57 130 188
e 57 131 189
e 57 132 190
e 57 167 25
e 57 168 26
e 57 169 27
e 58 59 118
e 58 94 153
e 58 95 154
e 58 96 155
e 58 131 190
e 58 132 191
e 58 133 192
e 58 168 27
e 58 169 28
e 58 170 29
e 59 60 120
e 59 95 155
e 59 96 156
e 59 97 157
e 59 132 192
e 59 133 193
e 59 134 194
e 59 169 29
e 59 170 30
e 59 171 31
e 60 61 122
e 60 96 157
e 60 97 158
e 60 98 159
e 60 133 194
e 60 134 195
e 60 135 196
e 60 170 31
e 60 171 32
e 60 172 33
e 61 62 124
e 61 97 159
e 61 98 160
e 61 99 161
e 61 134 196
e 61 135 197
e 61 136 198
e 61 171 33
e 61 172 34
e 61 173 35
e 62 63 126
e 62 98 161
e 62 99 162
e 62 100 163
e 62 135 198
e 62 136 199
e 62 137 200
e 62 172 35
e 62 173 36
e 62 174 37
e 63 64 128
e 63 99 163
e 63 100 164
e 63 101 165
e 63 136 200
e 63 137 1
e 63 138 2
e 63 173 37
e 63 174 38
e 63 175 39
e 64 65 130
e 64 100 165
e 64 101 166
e 64 102 167
e 64 137 2
e 64 138 3
e 64 139 4
e 64 174 39
e 64 175 40
e 64 176 41
e 65 66 132
e 65 101 167
e 65 102 168
e 65 103 169
e 65 138 4
e 65 139 5
e 65 140 6
e 65 175 41
e 65 176 42
e 65 177 43
e 66 67 134
e 66 102 169
e 66 103 170
e 66 104 171
e 66 139 6
e 66 140 7
e 66 141 8
e 66 176 43
e 66 177 44
e 66 178 45
e 67 68 136
e 67 103 171
e 67 104 172
e 67 105 173
e 67 140 8
e 67 141 9
e 67 142 10
e 67 177 45
e 67 178 46
e 67 179 47
e 68 69 138
e 68 104 173
e 68 105 174
e 68 106 175
e 68 141 10
e 68 142 11
e 68 143 12
e 68 178 47
e 68 179 48
e 68 180 49
e 69 70 140
e 69 105 175
e 69 106 176
e 69 107 177
e 69 142 12
e 69 143 13
e 69 144 14
e 69 179 49
e 69 180 50
e 69 181 51
e 70 71 142
e 70 106 177
e 70 107 178
e 70 108 179
e 70 143 14
e 70 144 15
e 70 145 16
e 70 180 51
e 70 181 52
e 70 182 53
e 71 72 144
e 71 107 179
e 71 108 180
e 71 109 181
e 71 144 16
e 71 145 17
e 71 146 18
e 71 181 53
e 71 182 54
e 71 183 55
e 72 73 146
e 72 108 181
e 72 109 182
e 72 110 183
e 72 145 18
e 72 146 19
e 72 147 20
e 72 182 55
e 72 183 56
e 72 184 57
e 73 74 148
e 73 109 183
e 73 110 184
e 73 111 185
e 73 146 20
e 73 147 21
e 73 148 22
e 73 183 57
e 73 184 58
e 73 185 59
e 74 75 150
e 74 110 185
e 74 111 186
e 74 112 187
e 74 147 22
e 74 148 23
e 74 149 24
e 74 184 59
e 74 185 60
e 74 186 61
e 75 76 152
e 75 111 187
e 75 112 188
e 75 113 189
e 75 148 24
e 75 149 25
e 75 150 26
e 75 185 61
e 75 186 62
e 75 187 63
e 76 77 154
e 76 112 189
e 76 113 190
e 76 114 191
e 76 149 26
e 76 150 27
e 76 151 28
e 76 186 63
e 76 187 64
e 76 188 65
e 77 78 156
e 77 113 191
e 77 114 192
e 77 115 193
e 77 150 28
e 77 151 29
e 77 152 30
e 77 187 65
e 77 188 66
e 77 189 67
e 78 79 158
e 78 114 193
e 78 115 194
e 78 116 195
e 78 151 30
e 78 152 31
e 78 153 32
e 78 188 67
e 78 189 68
e 78 190 69
e 79 80 160
e 79 115 195
e 79 116 196
e 79 117 197
e 79 152 32
e 79 153 33
e 79 154 34
e 79 189 69
e 79 190 70
e 79 191 71
e 80 81 162
e 80 116 197
e 80 117 198
e 80 118 199
e 80 153 34
e 80 154 35
e 80 155 36
e 80 190 71
e 80 191 72
e 80 192 73
e 81 82 164
e 81 117 199
e 81 118 200
e 81 119 1
e 81 154 36
e 81 155 37
e 81 156 38
e 81 191 73
e 81 192 74
e 81 193 75
e 82 83 166
e 82 118 1
e 82 119 2
e 82 120 3
e 82 155 38
e 82 156 39
e 82 157 40
e 82 192 75
e 82 193 76
e 82 194 77
e 83 84 168
e 83 119 3
e 83 120 4
e 83 121 5
e 83 156 40
e 83 157 41
e 83 158 42
e 83 193 77
e 83 194 78
e 83 195 79
e 84 85 170
e 84 120 5
e 84 121 6
e 84 122 7
e 84 157 42
e 84 158 43
e 84 159 44
e 84 194 79
e 84 195 80
e 84 196 81
e 85 86 172
e 85 121 7
e 85 122 8
e 85 123 9
e 85 158 44
e 85 159 45
e 85 160 46
e 85 195 81
e 85 196 82
e 85 197 83
e 86 87 174
e 86 122 9
e 86 123 10
e 86 124 11
e 86 159 46
e 86 160 47
e 86 161 48
e 86 196 83
e 86 197 84
e 86 198 85
e 87 88 176
e 87 123 11
e 87 124 12
e 87 125 13
e 87 160 48
e 87 161 49
e 87 162 50
e 87 197 85
e 87 198 86
e 87 199 87
e 88 89 178
e 88 124 13
e 88 125 14
e 88 126 15
e 88 161 50
e 88 162 51
e 88 163 52
e 88 198 87
e 88 199 88
e 88 200 89
e 89 90 180
e 89 125 15
e 89 126 16
e 89 127 17
e 89 162 52
e 89 163 53
e 89 164 54
e 89 199 89
e 89 200 90
e 90 91 182
e 90 126 17
e 90 127 18
e 90 128 19
e 90 163 54
e 90 164 55
e 90 165 56
e 90 200 91
e 91 92 184
e 91 127 19
e 91 128 20
e 91 129 21
e 91 164 56
e 91 165 57
e 91 166 58
e 92 93 186
e 92 128 21
e 92 129 22
e 92 130 23
e 92 165 58
e 92 166 59
e 92 167 60
e 93 94 188
e 93 129 23
e 93 130 24
e 93 131 25
e 93 166 60
e 93 167 61
e 93 168 62
e 94 95 190
e 94 130 25
e 94 131 26
e 94 132 27
e 94 167 62
e 94 168 63
e 94 169 64
e 95 96 192
e 95 131 27
e 95 132 28
e 95 133 29
e 95 168 64
e 95 169 65
e 95 170 66
e 96 97 194
e 96 132 29
e 96 133 30
e 96 134 31
e 96 169 66
e 96 170 67
e 96 171 68
e 97 98 196
e 97 133 31
e 97 134 32
e 97 135 33
e 97 170 68
e 97 171 69
e 97 172 70
e 98 99 198
e 98 134 33
e 98 135 34
e 98 136 35
e 98 171 70
e 98 172 71
e 98 173 72
e 99 100 200
e 99 135 35
e 99 136 36
e 99 137 37
e 99 172 72
e 99 173 73
e 99 174 74
e 100 101 2
e 100 136 37
e 100 137 38
e 100 138 39
e 100 173 74
e 100 174 75
e 100 175 76
e 101 102 4
e 101 137 39
e 101 138 40
e 101 139 41
e 101 174 76
e 101 175 77
e 101 176 78
e 102 103 6
e 102 138 41
e 102 139 42
e 102 140 43
e 102 175 78
e 102 176 79
e 102 177 80
e 103 104 8
e 103 139 43
e 103 140 44
e 103 141 45
e 103 176 80
e 103 177 81
e 103 178 82
e 104 105 10
e 104 140 45
e 104 141 46
e 104 142 47
e 104 177 82
e 104 178 83
e 104 179 84
e 105 106 12
e 105 141 47
e 105 142 48
e 105 143 49
e 105 178 84
e 105 179 85
e 105 180 86
e 106 107 14
e 106 142 49
e 106 143 50
e 106 144 51
e 106 179 86
e 106 180 87
e 106 181 88
e 107 108 16
e 107 143 51
e 107 144 52
e 107 145 53
e 107 180 88
e 107 181 89
e 107 182 90
e 108 109 18
e 108 144 53
e 108 145 54
e 108 146 55
e 108 181 90
e 108 182 91
e 108 183 92
e 109 110 20
e 109 145 55
e 109 146 56
e 109 147 57
e 109 182 92
e 109 183 93
e 109 184 94
e 110 111 22
e 110 146 57
e 110 147 58
e 110 148 59
e 110 183 94
e 110 184 95
e 110 185 96
e 111 112 24
e 111 147 59
e 111 148 60
e 111 149 61
e 111 184 96
e 111 185 97
e 111 186 98
e 112 113 26
e 112 148 61
e 112 149 62
e 112 150 63
e 112 185 98
e 112 186 99
e 112 187 100
e 113 114 28
e 113 149 63
e 113 150 64
e 113 151 65
e 113 186 100
e 113 187 101
e 113 188 102
e 114 115 30
e 114 150 65
e 114 151 66
e 114 152 67
e 114 187 102
e 114 188 103
e 114 189 104
e 115 116 32
e 115 151 67
e 115 152 68
e 115 153 69
e 115 188 104
e 115 189 105
e 115 190 106
e 116 117 34
e 116 152 69
e 116 153 70
e 116 154 71
e 116 189 106
e 116 190 107
e 116 191 108
e 117 118 36
e 117 153 71
e 117 154 72
e 117 155 73
e 117 190 108
e 117 191 109
e 117 192 110
e 118 119 38
e 118 154 73
e 118 155 74
e 118 156 75
e 118 191 110
e 118 192 111
e 118 193 112
e 119 120 40
e 119 155 75
e 119 156 76
e 119 157 77
e 119 192 112
e 119 193 113
e 119 194 114
e 120 121 42
e 120 156 77
e 120 157 78
e 120 158 79
e 120 193 114
e 120 194 115
e 120 195 116
e 121 122 44
e 121 157 79
e 121 158 80
e 121 159 81
e 121 194 116
e 121 195 117
e 121 196 118
e 122 123 46
e 122 158 81
e 122 159 82
e 122 160 83
e 122 195 118
e 122 196 119
e 122 197 120
e 123 124 48
e 123 159 83
e 123 160 84
e 123 161 85
e 123 196 120
e 123 197 121
e 123 198 122
e 124 125 50
e 124 160 85
e 124 161 86
e 124 162 87
e 124 197 122
e 124 198 123
e 124 199 124
e 125 126 52
e 125 161 87
e 125 162 88
e 125 163 89
e 125 198 124
e 125 199 125
e 125 200 126
e 126 127 54
e 126 162 89
e 126 163 90
e 126 164 91
e 126 199 126
e 126 200 127
e 127 128 56
e 127 163 91
e 127 164 92
e 127 165 93
e 127 200 128
e 128 129 58
e 128 164 93
e 128 165 94
e 128 166 95
e 129 130 60
e 129 165 95
e 129 166 96
e 129 167 97
e 130 131 62
e 130 166 97
e 130 167 98
e 130 168 99
e 131 132 64
e 131 167 99
e 131 168 100
e 131 169 101
e 132 133 66
e 132 168 101
e 132 169 102
e 132 170 103
e 133 134 68
e 133 169 103
e 133 170 104
e 133 171 105
e 134 135 70
e 134 170 105
e 134 171 106
e 134 172 107
e 135 136 72
e 135 171 107
e 135 172 108
e 135 173 109
e 136 137 74
e 136 172 109
e 136 173 110
e 136 174 111
e 137 138 76
e 137 173 111
e 137 174 112
e 137 175 113
e 138 139 78
e 138 174 113
e 138 175 114
e 138 176 115
e 139 140 80
e 139 175 115
e 139 176 116
e 139 177 117
e 140 141 82
e 140 176 117
e 140 177 118
e 140 178 119
e 141 142 84
e 141 177 119
e 141 178 120
e 141 179 121
e 142 143 86
e 142 178 121
e 142 179 122
e 142 180 123
e 143 144 88
e 143 179 123
e 143 180 124
e 143 181 125
e 144 145 90
e 144 180 125
e 144 181 126
e 144 182 127
e 145 146 92
e 145 181 127
e 145 182 128
e 145 183 129
e 146 147 94
e 146 182 129
e 146 183 130
e 146 184 131
e 147 148 96
e 147 183 131
e 147 184 132
e 147 185 133
e 148 149 98
e 148 184 133
e 148 185 134
e 148 186 135
e 149 150 100
e 149 185 135
e 149 186 136
e 149 187 137
e 150 151 102
e 150 186 137
e 150 187 138
e 150 188 139
e 151 152 104
e 151 187 139
e 151 188 140
e 151 189 141
e 152 153 106
e 152 188 141
e 152 189 142
e 152 190 143
e 153 154 108
e 153 189 143
e 153 190 144
e 153 191 145
e 154 155 110
e 154 190 145
e 154 191 146
e 154 192 147
e 155 156 112
e 155 191 147
e 155 192 148
e 155 193 149
e 156 157 114
e 156 192 149
e 156 193 150
e 156 194 151
e 157 158 116
e 157 193 151
e 157 194 152
e 157 195 153
e 158 159 118
e 158 194 153
e 158 195 154
e 158 196 155
e 159 160 120
e 159 195 155
e 159 196 156
e 159 197 157
e 160 161 122
e 160 196 157
e 160 197 158
e 160 198 159
e 161 162 124
e 161 197 159
e 161 198 160
e 161 199 161
e 162 163 126
e 162 198 161
e 162 199 162
e 162 200 163
e 163 164 128
e 163 199 163
e 163 200 164
e 164 165 130
e 164 200 165
e 165 166 132
e 166 167 134
e 167 168 136
e 168 169 138
e 169 170 140
e 170 171 142
e 171 172 144
e 172 173 146
e 173 174 148
e 174 175 150
e 175 176 152
e 176 177 154
e 177 178 156
e 178 179 158
e 179 180 160
e 180 181 162
e 181 182 164
e 182 183 166
e 183 184 168
e 184 185 170
e 185 186 172
e 186 187 174
e 187 188 176
e 188 189 178
e 189 190 180
e 190 191 182
e 191 192 184
e 192 193 186
e 193 194 188
e 194 195 190
e 195 196 192
e 196 197 194
e 197 198 196
e 198 199 198
e 199 200 200
n 1 0
n 2 0
n 3 0
n 4 0
n 5 0
n 6 0
n 7 0
n 8 0
n 9 0
n 10 0
n 11 0
n 12 0
n 13 0
n 14 0
n 15 0
n 16 0
n 17 0
n 18 0
n 19 0
n 20 0
n 21 0
n 22 0
n 23 0
n 24 0
n 25 0
n 26 0
n 27 0
n 28 0
n 29 0
n 30 0
n 31 0
n 32 0
n 33 0
n 34 0
n 35 0
n 36 0
n 37 0
n 38 0
n 39 0
n 40 0
n 41 0
n 42 0
n 43 0
n 44 0
n 45 0
n 46 0
n 47 0
n 48 0
n 49 0
n 50 0
n 51 0
n 52 0
n 53 0
n 54 0
n 55 0
n 56 0
n 57 0
n 58 0
n 59 0
n 60 0
n 61 0
n 62 0
n 63 0
n 64 0
n 65 0
n 66 0
n 67 0
n 68 0
n 69 0
n 70 0
n 71 0
n 72 0
n 73 0
n 74 0
n 75 0
n 76 0
n 77 0
n 78 0
n 79 0
n 80 0
n 81 0
n 82 0
n 83 0
n 84 0
n 85 0
n 86 0
n 87 0
n 88 0
n 89 0
n 90 0
n 91 0
n 92 0
n 93 0
n 94 0
n 95 0
n 96 0
n 97 0
n 98 0
n 99 0
n 100 0
n 101 0
n 102 0
n 103 0
n 104 0
n 105 0
n 106 0
n 107 0
n 108 0
n 109 0
n 110 0
n 111 0
n 112 0
n 113 0
n 114 0
n 115 0
n 116 0
n 117 0
n 118 0
n 119 0
n 120 0
n 121 0
n 122 0
n 123 0
n 124 0
n 125 0
n 126 0
n 127 0
n 128 0
n 129 0
n 130 0
n 131 0
n 132 0
n 133 0
n 134 0
n 135 0
n 136 0
n 137 0
n 138 0
n 139 0
n 140 0
n 141 0
n 142 0
n 143 0
n 144 0
n 145 0
n 146 0
n 147 0
n 148 0
n 149 0
n 150 0
n 151 0
n 152 0
n 153 0
n 154 0
n 155 0
n 156 0
n 157 0
n 158 0
n 159 0
n 160 0
n 161 0
n 162 0
n 163 0
n 164 0
n 165 0
n 166 0
n 167 0
n 168 0
n 169 0
n 170 0
n 171 0
n 172 0
n 173 0
n 174 0
n 175 0
n 176 0
n 177 0
n 178 0
n 179 0
n 180 0
n 181 0
n 182 0
n 183 0
n 184 0
n 185 0
n 186 0
n 187 0
n 188 0
n 189 0
n 190 0
n 191 0
n 192 0
n 193 0
n 194 0
n 195 0
n 196 0
n 197 0
n 198 0
n 199 0
n 200 0
